CMPL model generation - running

CMPL version: 1.11.0
Authors: Thomas Schleiff, Mike Steglich
Distributed under the GPLv3 

create model instance ...
write model instance ...
CMPL model generation - finished

Solver - running


Welcome to IBM(R) ILOG(R) CPLEX(R) Interactive Optimizer 12.7.1.0
  with Simplex, Mixed Integer & Barrier Optimizers
5725-A06 5725-A29 5724-Y48 5724-Y49 5724-Y54 5724-Y55 5655-Y21
Copyright IBM Corp. 1988, 2017.  All Rights Reserved.

Type 'help' for a list of available commands.
Type 'help' followed by a command name for more
information on commands.

CPLEX> Specified objective sense: MINIMIZE
Selected objective  name:  line[1]
Selected RHS        name:  RHS
Selected bound      name:  BOUND
Problem '/tmp/cmpl.T24487.mps' read.
Read time = 0.05 sec. (8.18 ticks)
CPLEX> CPXPARAM_Read_APIEncoding                        "UTF-8"
Tried aggregator 3 times.
MIP Presolve eliminated 19117 rows and 30470 columns.
MIP Presolve modified 340 coefficients.
Aggregator did 707 substitutions.
Reduced MIP has 2531 rows, 3416 columns, and 9956 nonzeros.
Reduced MIP has 3248 binaries, 0 generals, 0 SOSs, and 0 indicators.
Presolve time = 0.05 sec. (42.15 ticks)
Found incumbent of value 1574.776791 after 0.10 sec. (76.40 ticks)
Probing fixed 14 vars, tightened 0 bounds.
Probing time = 0.01 sec. (4.48 ticks)
Tried aggregator 1 time.
MIP Presolve eliminated 0 rows and 14 columns.
MIP Presolve modified 84 coefficients.
Reduced MIP has 2531 rows, 3402 columns, and 9928 nonzeros.
Reduced MIP has 3402 binaries, 0 generals, 0 SOSs, and 0 indicators.
Presolve time = 0.01 sec. (8.44 ticks)
Probing time = 0.01 sec. (2.72 ticks)
Clique table members: 6120.
MIP emphasis: balance optimality and feasibility.
MIP search method: dynamic search.
Parallel mode: none, using 1 thread.
Root relaxation solution time = 0.01 sec. (7.06 ticks)

        Nodes                                         Cuts/
   Node  Left     Objective  IInf  Best Integer    Best Bound    ItCnt     Gap

*     0+    0                         1574.7768      -10.1032           100.64%
      0     0      360.2641     2     1574.7768      360.2641      319   77.12%
*     0+    0                          362.2922      360.2641             0.56%
*     0+    0                          360.3212      360.2641             0.02%
      0     0        cutoff            360.3212                    319    0.00%
Elapsed time = 0.16 sec. (113.31 ticks, tree = 0.01 MB, solutions = 3)

Root node processing (before b&c):
  Real time             =    0.16 sec. (114.80 ticks)
Sequential b&c:
  Real time             =    0.00 sec. (0.00 ticks)
                          ------------
Total (root+branch&cut) =    0.16 sec. (114.80 ticks)

Solution pool: 3 solutions saved.

MIP - Integer optimal solution:  Objective =  3.6032121000e+02
Solution time =    0.16 sec.  Iterations = 319  Nodes = 0
Deterministic time = 114.90 ticks  (714.05 ticks/sec)

CPLEX> Incumbent solution written to file '/tmp/cmpl.T24487.gsol'.
CPLEX> 
CMPL: Time used for model generation: 1 seconds
CMPL: Time used for solving the model: 0 seconds


Solution written to ASCII file: results/output_generated_conf_0.7/2017-01-09-4/fair-nonlinear.sol

Solver - finished
